
Log started (V12.10.0.0) Sun Apr  4 09:41:19 2021


Problem 'asset.lp' read.
Read time = 0.00 sec. (0.26 ticks)
New value for default parallel thread count: 1
New value for time limit in seconds: 300
Version identifier: 12.10.0.0 | 2019-11-26 | 843d4de
CPXPARAM_Threads                                 1
CPXPARAM_TimeLimit                               300
Found incumbent of value -0.904749 after 0.00 sec. (0.12 ticks)
Tried aggregator 4 times.
MIP Presolve eliminated 1336 rows and 997 columns.
MIP Presolve modified 2788 coefficients.
Aggregator did 522 substitutions.
Reduced MIP has 627 rows, 655 columns, and 2922 nonzeros.
Reduced MIP has 590 binaries, 36 generals, 0 SOSs, and 0 indicators.
Presolve time = 0.01 sec. (7.77 ticks)
Probing fixed 181 vars, tightened 10 bounds.
Probing time = 0.00 sec. (2.98 ticks)
Cover probing fixed 0 vars, tightened 46 bounds.
Tried aggregator 1 time.
MIP Presolve eliminated 216 rows and 209 columns.
MIP Presolve modified 2 coefficients.
Reduced MIP has 411 rows, 439 columns, and 1673 nonzeros.
Reduced MIP has 391 binaries, 19 generals, 0 SOSs, and 0 indicators.
Presolve time = 0.00 sec. (1.74 ticks)
Probing time = 0.00 sec. (1.75 ticks)
Tried aggregator 1 time.
Detecting symmetries...
MIP Presolve modified 98 coefficients.
Reduced MIP has 411 rows, 439 columns, and 1673 nonzeros.
Reduced MIP has 391 binaries, 19 generals, 0 SOSs, and 0 indicators.
Presolve time = 0.00 sec. (1.19 ticks)
Probing time = 0.00 sec. (1.74 ticks)
Clique table members: 1676.
MIP emphasis: balance optimality and feasibility.
MIP search method: dynamic search.
Parallel mode: none, using 1 thread.
Root relaxation solution time = 0.00 sec. (3.41 ticks)

        Nodes                                         Cuts/
   Node  Left     Objective  IInf  Best Integer    Best Bound    ItCnt     Gap

*     0+    0                           -0.9047      356.4937              --- 
      0     0      235.6885    90       -0.9047      235.6885      312     --- 
      0     0      233.3264    90       -0.9047     Cuts: 168      427     --- 
      0     0      230.4869    90       -0.9047     Cuts: 141      520     --- 
*     0+    0                          159.6753      230.4869            44.35%
      0     0      229.2072    90      159.6753      Cuts: 86      600   43.55%
*     0+    0                          162.6265      229.2072            40.94%
      0     0      228.8139    90      162.6265      Cuts: 59      650   40.70%
      0     0      228.7024    90      162.6265      Cuts: 42      678   40.63%
*     0+    0                          164.6666      228.7024            38.89%
Detecting symmetries...
      0     0      228.5338    90      164.6666      Cuts: 31      721   38.79%
      0     0      228.4188    90      164.6666      Cuts: 50      750   38.72%
      0     0      228.4139    90      164.6666      Cuts: 31      773   38.71%
      0     0      228.3011    90      164.6666      Cuts: 17      806   38.64%
      0     0      228.0273    90      164.6666      Cuts: 34      848   38.48%
      0     0      227.6655    90      164.6666      Cuts: 50      896   38.26%
*     0+    0                          184.2110      227.6655            23.59%
      0     0      227.3109    90      184.2110      Cuts: 39      954   23.40%
      0     0      225.6028    90      184.2110      Cuts: 67      995   22.47%
      0     0      224.8535    90      184.2110      Cuts: 42     1057   22.06%
      0     0      224.0403    90      184.2110      Cuts: 78     1125   21.62%
*     0+    0                          186.0028      224.0403            20.45%
      0     0      223.8144    90      186.0028      Cuts: 36     1155   20.33%
      0     0      223.7784    90      186.0028      Cuts: 17     1173   20.31%
*     0+    0                          186.0052      223.7784            20.31%
Detecting symmetries...
      0     2      223.7784   123      186.0052      223.7756     1173   20.31%
Elapsed time = 0.14 sec. (128.75 ticks, tree = 0.01 MB, solutions = 6)
*   380+  304                          190.3743      222.7752            17.02%
*   380+  304                          190.3743      222.7752            17.02%
    390   313      222.5806   112      190.3743      222.6909     9542   16.98%
*   480+  382                          191.0050      222.5741            16.53%
*   480+  353                          195.2657      222.5741            13.99%
    704   532      220.2084    88      195.2657      221.7333    16691   13.55%
   1040   807      211.0698    61      195.2657      221.2075    24716   13.29%
*  1097   844      integral     0      195.3850      221.0732    25802   13.15%

Performing restart 1

Repeating presolve.
Tried aggregator 2 times.
MIP Presolve modified 272 coefficients.
Aggregator did 14 substitutions.
Reduced MIP has 397 rows, 425 columns, and 1441 nonzeros.
Reduced MIP has 377 binaries, 19 generals, 0 SOSs, and 0 indicators.
Presolve time = 0.00 sec. (1.92 ticks)
Tried aggregator 1 time.
Reduced MIP has 397 rows, 425 columns, and 1441 nonzeros.
Reduced MIP has 377 binaries, 19 generals, 0 SOSs, and 0 indicators.
Presolve time = 0.00 sec. (1.10 ticks)
Represolve time = 0.01 sec. (9.58 ticks)
   1207     0      209.7783   110      195.3850     Cuts: 135    28843    7.37%
   1207     0      203.9436   110      195.3850     Cuts: 103    28922    4.38%
   1207     0      202.6390   110      195.3850      Cuts: 32    28952    3.71%
   1207     0      202.1694   110      195.3850      Cuts: 46    28995    3.47%
   1207     0      201.7826   110      195.3850      Cuts: 32    29051    3.27%
*  1207+    0                          195.3851      201.7826             3.27%
   1207     0        cutoff            195.3851      201.7826    29051    3.27%

Repeating presolve.
Tried aggregator 2 times.
MIP Presolve eliminated 151 rows and 112 columns.
MIP Presolve modified 208 coefficients.
Aggregator did 4 substitutions.
Reduced MIP has 242 rows, 309 columns, and 1514 nonzeros.
Reduced MIP has 270 binaries, 13 generals, 0 SOSs, and 0 indicators.
Presolve time = 0.00 sec. (1.63 ticks)
Tried aggregator 1 time.
Reduced MIP has 242 rows, 309 columns, and 1514 nonzeros.
Reduced MIP has 270 binaries, 13 generals, 0 SOSs, and 0 indicators.
Presolve time = 0.00 sec. (0.99 ticks)
Represolve time = 0.01 sec. (9.31 ticks)
   1207     0      201.6316    86      195.3851      Cuts: 44    29407    3.20%
   1207     0      201.5738    86      195.3851      Cuts: 50    29454    3.17%
   1207     0      201.4435    86      195.3851      Cuts: 48    29498    3.10%
   1207     0      201.4112    86      195.3851      Cuts: 50    29548    3.08%
   1207     0      201.3108    86      195.3851      Cuts: 36    29646    3.03%
*  1207+    0                          198.0914      201.3108             1.63%
   1207     0      201.2495    86      198.0914      Cuts: 64    29731    1.59%
   1207     0      201.1974    86      198.0914      Cuts: 64    29791    1.57%
   1207     0      201.1909    86      198.0914      Cuts: 36    29852    1.56%
   1207     0      201.0716    86      198.0914      Cuts: 46    29924    1.50%
   1207     0      201.0580    86      198.0914      Cuts: 37    29950    1.50%
   1207     0      201.0341    86      198.0914      Cuts: 18    29981    1.49%
   1207     0      201.0105    86      198.0914      Cuts: 30    30020    1.47%
   1207     0      200.9121    86      198.0914      Cuts: 28    30089    1.42%
   1207     0      200.8380    86      198.0914      Cuts: 32    30119    1.39%
   1207     0      200.8214    86      198.0914      Cuts: 24    30153    1.38%
   1207     0      200.7771    86      198.0914      Cuts: 26    30194    1.36%
   1207     0      200.7205    86      198.0914      Cuts: 33    30255    1.33%
   1207     0      200.6928    86      198.0914      Cuts: 30    30306    1.31%
*  1207+    0                          198.0931      200.6928             1.31%
   1207     0      200.6760    86      198.0931      Cuts: 36    30345    1.30%
   1207     0      200.6444    86      198.0931      Cuts: 19    30412    1.29%
   1207     0      200.6441    86      198.0931      Cuts: 22    30447    1.29%
   1207     0      200.6440    86      198.0931       Cuts: 7    30455    1.29%
   1207     0      200.6228    86      198.0931      Cuts: 16    30490    1.28%
*  1207+    0                          198.3249      200.6228             1.16%
   1207     2      200.6227   101      198.3249      200.6227    30490    1.16%
   1229     8      199.1121    70      198.3249      200.4347    31313    1.06%
*  1235    11      integral     0      198.6728      200.4347    31420    0.89%
*  1255    16      integral     0      198.6730      200.3004    31780    0.82%
*  1267+   12                          198.6745      200.2407             0.79%

GUB cover cuts applied:  5
Clique cuts applied:  17
Cover cuts applied:  3
Implied bound cuts applied:  7
Flow cuts applied:  6
Mixed integer rounding cuts applied:  14
Zero-half cuts applied:  30
Lift and project cuts applied:  8
Gomory fractional cuts applied:  5

Root node processing (before b&c):
  Real time             =    0.14 sec. (129.04 ticks)
Sequential b&c:
  Real time             =    1.80 sec. (1895.93 ticks)
                          ------------
Total (root+branch&cut) =    1.93 sec. (2024.97 ticks)

Solution pool: 19 solutions saved.

MIP - Integer optimal, tolerance (0.0001/1e-06):  Objective =  1.9867450178e+02
Current MIP best bound =  1.9868924902e+02 (gap = 0.0147472, 0.01%)
Solution time =    1.93 sec.  Iterations = 32677  Nodes = 1297 (12)
Deterministic time = 2024.98 ticks  (1046.54 ticks/sec)


Incumbent solution
Variable Name           Solution Value
F                           215.000000
f1                            0.925498
f2                           15.400000
y194                          1.000000
y109                          1.000000
y272                          1.000000
y269                          1.000000
y82                           1.000000
y113                          1.000000
y67                           1.000000
y188                          1.000000
y115                          1.000000
y43                           1.000000
y126                          1.000000
y166                          1.000000
y45                           1.000000
s11                           6.000000
s17                           6.000000
s19                           6.000000
s27                           6.000000
s33                           6.000000
s44                           6.000000
s53                           6.000000
s63                           6.000000
s74                           6.000000
s78                           6.000000
s79                           6.000000
s81                           6.000000
s91                           6.000000
s119                          6.000000
s121                          6.000000
s139                          6.000000
s142                          6.000000
s151                          6.000000
s157                          6.000000
s160                          6.000000
s164                          6.000000
s177                          6.000000
s183                          6.000000
s194                          6.803024
s228                          6.000000
s229                          6.000000
s250                          6.000000
s270                          6.000000
s280                          6.000000
s287                          6.000000
s123                          6.040000
s109                          6.932806
s32                           6.130000
s56                           6.140000
s272                          6.481688
s269                          7.167213
s21                           6.210000
s241                          6.240000
s82                           6.928821
s125                          6.270000
s267                          6.280000
s18                           6.290000
s113                          6.810447
s67                           7.254964
s36                           6.640000
s193                          6.680000
s260                          6.720000
s188                          6.782062
s115                          7.033290
s43                           7.039057
s126                          7.800918
s277                          6.850000
s166                          7.873340
s170                          6.890000
s282                          6.900000
s114                          6.920000
s45                           7.975070
x224x194x1                    2.000000
x42x113x1                     1.000000
x13x269x1                     1.000000
x13x115x1                     1.000000
x122x272x1                    1.000000
x61x109x1                     1.000000
x42x113x2                     1.000000
x15x115x2                     1.000000
x62x269x2                     1.000000
x122x272x2                    1.000000
x61x188x2                     1.000000
x98x109x2                     1.000000
x98x43x2                      1.000000
x105x82x3                     2.000000
x15x67x3                      1.000000
x62x67x3                      1.000000
x268x188x3                    1.000000
x268x43x3                     1.000000
x194x0x1                      1.000000
x194x45x1                     1.000000
x109x0x1                      1.000000
x109x0x2                      1.000000
x272x126x1                    1.000000
x272x45x2                     1.000000
x269x0x1                      1.000000
x269x0x2                      1.000000
x82x0x3                       2.000000
x113x0x1                      1.000000
x113x166x2                    1.000000
x67x0x3                       2.000000
x188x166x2                    1.000000
x188x126x3                    1.000000
x115x0x1                      1.000000
x115x0x2                      1.000000
x43x0x2                       1.000000
x43x0x3                       1.000000
x126x0x1                      1.000000
x126x0x3                      1.000000
x166x0x2                      2.000000
x45x0x1                       1.000000
x45x0x2                       1.000000
s224                          4.864060
z224z194z1                    1.000000
s105                          4.901012
z105z82z3                     1.000000
s42                           5.215205
z42z113z1                     1.000000
z42z113z2                     1.000000
z42z166z2                     1.000000
s15                           5.223532
z15z67z3                      1.000000
z15z115z2                     1.000000
s62                           5.299485
z62z269z2                     1.000000
z62z67z3                      1.000000
s13                           5.720000
z13z269z1                     1.000000
z13z115z1                     1.000000
s122                          4.320490
z122z272z1                    1.000000
z122z272z2                    1.000000
z122z36z2                     1.000000
z122z260z2                    1.000000
z122z166z2                    1.000000
s268                          4.766020
z268z188z3                    1.000000
z268z43z3                     1.000000
s61                           4.783610
z61z109z1                     1.000000
z61z188z2                     1.000000
z61z166z2                     1.000000
s98                           4.818500
z98z109z2                     1.000000
z98z43z2                      1.000000
z98z166z2                     1.000000
z194z45z1                     1.000000
z272z126z1                    1.000000
z272z45z2                     1.000000
z113z166z2                    1.000000
z260z166z2                    1.000000
z188z126z3                    1.000000
z188z166z2                    1.000000
All other variables in the range 1-2175 are 0.
